%nproc=4
# hf/gen 6d 10f nosymm Scf(maxcycle=1000,verytight) int(grid=ultrafine)
 
H
 
-1   1
H    0.00000000   0.00000000   0.00000000
 
H    0
S   2   1.00
      5D-1            5D-1
      8D-1            3D-1
****
 
 
