%nproc=4
# hf/gen 6d 10f nosymm Scf(maxcycle=1000,verytight) int(grid=ultrafine)
 
H
 
-1   1
H    0.00000000   0.00000000   0.00000000
 
H    0
S   2   1.00
      5E-1            5E-1
      8E-1            3E-1
****
 
 
